
******************************************************************************
This program contains Ipopt, a library for large-scale nonlinear optimization.
 Ipopt is released as open source code under the Eclipse Public License (EPL).
         For more information visit http://projects.coin-or.org/Ipopt

This version of Ipopt was compiled from source code available at
    https://github.com/IDAES/Ipopt as part of the Institute for the Design of
    Advanced Energy Systems Process Systems Engineering Framework (IDAES PSE
    Framework) Copyright (c) 2018-2019. See https://github.com/IDAES/idaes-pse.

This version of Ipopt was compiled using HSL, a collection of Fortran codes
    for large-scale scientific computation.  All technical papers, sales and
    publicity material resulting from use of the HSL codes within IPOPT must
    contain the following acknowledgement:
        HSL, a collection of Fortran codes for large-scale scientific
        computation. See http://www.hsl.rl.ac.uk.
******************************************************************************

This is Ipopt version 3.13.2, running with linear solver ma27.

Number of nonzeros in equality constraint Jacobian...:      808
Number of nonzeros in inequality constraint Jacobian.:        0
Number of nonzeros in Lagrangian Hessian.............:      702

Total number of variables............................:      351
                     variables with only lower bounds:      108
                variables with lower and upper bounds:      189
                     variables with only upper bounds:        0
Total number of equality constraints.................:      350
Total number of inequality constraints...............:        0
        inequality constraints with only lower bounds:        0
   inequality constraints with lower and upper bounds:        0
        inequality constraints with only upper bounds:        0

iter    objective    inf_pr   inf_du lg(mu)  ||d||  lg(rg) alpha_du alpha_pr  ls
   0  0.0000000e+00 4.56e-01 4.44e-16  -1.0 0.00e+00    -  0.00e+00 0.00e+00   0
   1  6.0504071e+00 3.22e+00 3.57e+04  -1.0 2.60e+05    -  4.95e-01 5.78e-01h  1
   2  7.4001271e+00 2.74e+00 3.07e+04  -1.0 1.34e+05    -  8.21e-01 1.21e-01h  1
   3  7.5765867e+00 2.69e+00 3.03e+04  -1.0 1.67e+05    -  8.33e-01 1.62e-02h  1
   4  2.5325854e+01 2.16e-01 6.22e+03  -1.0 1.68e+05    -  8.39e-01 9.90e-01h  1
   5  2.8048872e+01 5.07e-03 2.87e+03  -1.0 1.80e+04    -  9.49e-01 9.90e-01h  1
   6  2.8099212e+01 7.75e-05 3.09e+01  -1.0 3.23e+02    -  9.90e-01 9.90e-01h  1
   7  2.8100676e+01 7.51e-05 2.63e+07  -1.0 7.44e+02    -  9.90e-01 3.09e-02f  6
   8  2.8102332e+01 7.40e-05 5.36e+07  -1.0 1.69e+03    -  9.94e-01 1.55e-02f  7
   9  2.8208121e+01 4.73e-05 8.23e+05  -1.0 1.69e+03    -  1.00e+00 9.90e-01H  1
iter    objective    inf_pr   inf_du lg(mu)  ||d||  lg(rg) alpha_du alpha_pr  ls
  10  2.8208818e+01 5.26e-07 2.87e+07  -1.0 1.10e+01    -  1.00e+00 9.90e-01h  1
  11  2.8208822e+01 5.26e-09 2.87e+09  -1.0 6.49e-02    -  1.00e+00 9.90e-01h  1
  12  2.8208822e+01 5.27e-11 2.87e+11  -1.0 6.49e-04    -  1.00e+00 9.90e-01h  1
In iteration 12, 27 Slacks too small, adjusting variable bounds
  13  2.8208822e+01 2.73e-12 2.87e+13  -1.0 6.50e-06    -  1.00e+00 9.90e-01h  1
  14  2.8208822e+01 9.44e-13 1.76e-01  -1.0 4.30e-07    -  1.00e+00 1.00e+00h  1
  15  2.8208819e+01 2.09e-12 2.93e+13  -9.0 1.90e+03    -  9.98e-01 2.78e-05f 16
  16  2.8208818e+01 3.61e-12 2.93e+13  -9.0 1.73e+03    -  9.99e-01 7.61e-06f 18
  17  2.8208817e+01 1.61e-12 2.93e+13  -9.0 1.73e+03    -  1.00e+00 7.63e-06f 18
  18  2.8208815e+01 1.30e-12 2.93e+13  -9.0 1.73e+03    -  1.00e+00 1.53e-05f 17
  19  2.8208809e+01 2.98e-12 2.93e+13  -9.0 1.73e+03    -  1.00e+00 6.10e-05f 15
iter    objective    inf_pr   inf_du lg(mu)  ||d||  lg(rg) alpha_du alpha_pr  ls
  20  2.8099556e+01 7.29e-04 6.09e+06  -9.0 1.73e+03    -  1.00e+00 1.00e+00f  1
  21  2.8098721e+01 8.38e-09 1.28e-04  -9.0 1.19e+01    -  1.00e+00 1.00e+00h  1
  22  2.8098721e+01 3.77e-12 5.82e-11  -9.0 9.91e-05    -  1.00e+00 1.00e+00h  1

Number of Iterations....: 22

                                   (scaled)                 (unscaled)
Objective...............:   2.8098721462228959e+01    2.8098721462228959e+01
Dual infeasibility......:   5.8207660913467407e-11    5.8207660913467407e-11
Constraint violation....:   3.7703173916270316e-12    3.7703173916270316e-12
Complementarity.........:   9.0909091459713218e-10    9.0909091459713218e-10
Overall NLP error.......:   6.2029902708707170e-12    9.0909091459713218e-10


Number of objective function evaluations             = 136
Number of objective gradient evaluations             = 23
Number of equality constraint evaluations            = 136
Number of inequality constraint evaluations          = 0
Number of equality constraint Jacobian evaluations   = 23
Number of inequality constraint Jacobian evaluations = 0
Number of Lagrangian Hessian evaluations             = 22
Total CPU secs in IPOPT (w/o function evaluations)   =      0.053
Total CPU secs in NLP function evaluations           =      1.129

EXIT: Optimal Solution Found.
